NAME: dataset10
TYPE: TSP
COMMENT: Archivo dataset10
DIMENSION: 10
NODE_COORD_SECTION
1 803.9384155273 885.5643920898
2 695.70703125 783.6505737305
3 801.6275634766 444.8832397461
4 458.5350646973 359.4975585938
5 250.953918457 587.8804321289
6 729.6021728516 567.2814941406
7 393.162902832 697.1061401367
8 329.450958252 3.1907558441
9 585.8798217773 598.4052734375
10 173.1117401123 663.223449707
EOF
